54 54
8 24
14 42
16 34
22 7
15 17
17 21
2 4
10 50
18 46
1 15
4 37
11 32
12 54
21 30
16 3
24 43
17 14
20 16
3 39
25 25
19 38
15 5
9 1
14 22
12 6
7 36
4 23
11 52
23 49
18 11
1 9
8 19
22 41
21 31
9 2
13 53
19 28
5 29
10 33
7 48
27 47
27 35
24 45
6 44
6 51
2 40
25 26
13 27
26 8
3 20
26 13
5 12
20 10
23 18
